rcpsp/heur_output_or_constraints/Log=1/heurj120.txt
encoding rcpsp/j120.sm/j12057_3.sm nv: 5170624 nc: 10581461 enctime: 128.84
encoding rcpsp/j120.sm/j12057_3.sm nv: 1479456 nc: 3024249 enctime: 22.79
c File: j12057_3.smnaiveor1.wcnf
c timeout
c final solution cost: 235
c CPU time: 76.246324
s UNKNOWN

c File: j12057_3.smor1.wcnf
c timeout
c CPU time: 62.589115
s UNKNOWN


rcpsp/heur_output_or_constraints/Log=1/heurj120.txt
encoding rcpsp/j120.sm/j12057_4.sm nv: 4755366 nc: 9758060 enctime: 118.20
encoding rcpsp/j120.sm/j12057_4.sm nv: 1447882 nc: 2967644 enctime: 19.25
c File: j12057_4.smnaiveor1.wcnf
c timeout
c final solution cost: 248
c CPU time: 74.180987
s UNKNOWN

c File: j12057_4.smor1.wcnf
c timeout
c CPU time: 62.392505
s UNKNOWN


rcpsp/heur_output_or_constraints/Log=1/heurj120.txt
encoding rcpsp/j120.sm/j12057_5.sm nv: 4881106 nc: 9977836 enctime: 118.99
encoding rcpsp/j120.sm/j12057_5.sm nv: 1405056 nc: 2868986 enctime: 27.55
c File: j12057_5.smnaiveor1.wcnf
c timeout
c final solution cost: 229
c CPU time: 75.650191
s UNKNOWN

c File: j12057_5.smor1.wcnf
c timeout
c CPU time: 62.358288
s UNKNOWN


rcpsp/heur_output_or_constraints/Log=1/heurj120.txt
encoding rcpsp/j120.sm/j12057_6.sm nv: 4167891 nc: 8528998 enctime: 101.76
encoding rcpsp/j120.sm/j12057_6.sm nv: 1387116 nc: 2835698 enctime: 24.40
c File: j12057_6.smnaiveor1.wcnf
c timeout
c final solution cost: 542
c CPU time: 72.985032
s UNKNOWN

c File: j12057_6.smor1.wcnf
c timeout
c CPU time: 62.445566
s UNKNOWN


rcpsp/heur_output_or_constraints/Log=1/heurj120.txt
encoding rcpsp/j120.sm/j12057_7.sm nv: 5048744 nc: 10313417 enctime: 111.17
encoding rcpsp/j120.sm/j12057_7.sm nv: 1330208 nc: 2713985 enctime: 19.34
c File: j12057_7.smnaiveor1.wcnf
c timeout
c final solution cost: 289
c CPU time: 76.350272
s UNKNOWN

c File: j12057_7.smor1.wcnf
c timeout
c CPU time: 62.038252
s UNKNOWN


rcpsp/heur_output_or_constraints/Log=1/heurj120.txt
encoding rcpsp/j120.sm/j12057_8.sm nv: 4943360 nc: 10074395 enctime: 97.49
encoding rcpsp/j120.sm/j12057_8.sm nv: 1328528 nc: 2704331 enctime: 25.96
c File: j12057_8.smnaiveor1.wcnf
c timeout
c final solution cost: 227
c CPU time: 74.490175
s UNKNOWN

c File: j12057_8.smor1.wcnf
c timeout
c CPU time: 62.024764
s UNKNOWN


rcpsp/heur_output_or_constraints/Log=1/heurj120.txt
encoding rcpsp/j120.sm/j12057_9.sm nv: 4837968 nc: 9873811 enctime: 116.65
encoding rcpsp/j120.sm/j12057_9.sm nv: 1321482 nc: 2693887 enctime: 21.53
c File: j12057_9.smnaiveor1.wcnf
c timeout
c final solution cost: 273
c CPU time: 75.359882
s UNKNOWN

c File: j12057_9.smor1.wcnf
c timeout
c CPU time: 62.139536
s UNKNOWN


rcpsp/heur_output_or_constraints/Log=1/heurj120.txt
encoding rcpsp/j120.sm/j1205_7.sm nv: 1088362 nc: 2407066 enctime: 44.40
encoding rcpsp/j120.sm/j1205_7.sm nv: 102186 nc: 221914 enctime: 2.01
c File: j1205_7.smnaiveor1.wcnf
c timeout
c final solution cost: 58
c CPU time: 67.479375
s UNKNOWN

c File: j1205_7.smor1.wcnf
c timeout
c final solution cost: 58
c CPU time: 60.240456
s UNKNOWN


rcpsp/heur_output_or_constraints/Log=1/heurj120.txt
encoding rcpsp/j120.sm/j12058_10.sm nv: 5573358 nc: 11312108 enctime: 120.87
encoding rcpsp/j120.sm/j12058_10.sm nv: 1270332 nc: 2575224 enctime: 16.04
c File: j12058_10.smnaiveor1.wcnf
c timeout
c final solution cost: 196
c CPU time: 74.572832
s UNKNOWN

c File: j12058_10.smor1.wcnf
c timeout
c CPU time: 61.825250
s UNKNOWN


rcpsp/heur_output_or_constraints/Log=1/heurj120.txt
encoding rcpsp/j120.sm/j12058_1.sm nv: 5662594 nc: 11506752 enctime: 106.52
encoding rcpsp/j120.sm/j12058_1.sm nv: 1307432 nc: 2653458 enctime: 16.44
c File: j12058_1.smnaiveor1.wcnf
c timeout
c final solution cost: 189
c CPU time: 74.607774
s UNKNOWN

c File: j12058_1.smor1.wcnf
c timeout
c CPU time: 61.907267
s UNKNOWN


rcpsp/heur_output_or_constraints/Log=1/heurj120.txt
encoding rcpsp/j120.sm/j12058_2.sm nv: 7209360 nc: 14621365 enctime: 130.34
encoding rcpsp/j120.sm/j12058_2.sm nv: 1357056 nc: 2748397 enctime: 20.82
c File: j12058_2.smnaiveor1.wcnf
c timeout
c final solution cost: 183
c CPU time: 76.931057
s UNKNOWN

c File: j12058_2.smor1.wcnf
c timeout
c CPU time: 61.869491
s UNKNOWN


rcpsp/heur_output_or_constraints/Log=1/heurj120.txt
encoding rcpsp/j120.sm/j12058_3.sm nv: 6788664 nc: 13736677 enctime: 121.19
encoding rcpsp/j120.sm/j12058_3.sm nv: 1344924 nc: 2718127 enctime: 17.07
c File: j12058_3.smnaiveor1.wcnf
c timeout
c final solution cost: 123
c CPU time: 75.798642
s UNKNOWN

c File: j12058_3.smor1.wcnf
c timeout
c CPU time: 61.855538
s UNKNOWN


rcpsp/heur_output_or_constraints/Log=1/heurj120.txt
encoding rcpsp/j120.sm/j12058_4.sm nv: 6286245 nc: 12795032 enctime: 121.01
encoding rcpsp/j120.sm/j12058_4.sm nv: 1394904 nc: 2835394 enctime: 17.87
c File: j12058_4.smnaiveor1.wcnf
c timeout
c final solution cost: 253
c CPU time: 76.467461
s UNKNOWN

c File: j12058_4.smor1.wcnf
c timeout
c CPU time: 62.009506
s UNKNOWN


rcpsp/heur_output_or_constraints/Log=1/heurj120.txt
encoding rcpsp/j120.sm/j12058_5.sm nv: 8504925 nc: 17240602 enctime: 152.49
encoding rcpsp/j120.sm/j12058_5.sm nv: 1474980 nc: 2985682 enctime: 19.15
c File: j12058_5.smnaiveor1.wcnf
c timeout
c final solution cost: 493
c CPU time: 80.376368
s UNKNOWN

c File: j12058_5.smor1.wcnf
c timeout
c CPU time: 61.992376
s UNKNOWN


rcpsp/heur_output_or_constraints/Log=1/heurj120.txt
encoding rcpsp/j120.sm/j12058_6.sm nv: 6081808 nc: 12338269 enctime: 114.45
encoding rcpsp/j120.sm/j12058_6.sm nv: 1404224 nc: 2845554 enctime: 17.94
c File: j12058_6.smnaiveor1.wcnf
c timeout
c final solution cost: 186
c CPU time: 74.971789
s UNKNOWN

c File: j12058_6.smor1.wcnf
c timeout
c CPU time: 62.004778
s UNKNOWN


rcpsp/heur_output_or_constraints/Log=1/heurj120.txt
encoding rcpsp/j120.sm/j12058_7.sm nv: 7668558 nc: 15601105 enctime: 148.08
encoding rcpsp/j120.sm/j12058_7.sm nv: 1631387 nc: 3314698 enctime: 22.11
c File: j12058_7.smnaiveor1.wcnf
c timeout
c final solution cost: 370
c CPU time: 80.090024
s UNKNOWN

c File: j12058_7.smor1.wcnf
c timeout
c CPU time: 62.406839
s UNKNOWN


rcpsp/heur_output_or_constraints/Log=1/heurj120.txt
encoding rcpsp/j120.sm/j12058_8.sm nv: 6781110 nc: 13773509 enctime: 133.16
encoding rcpsp/j120.sm/j12058_8.sm nv: 1383900 nc: 2807099 enctime: 18.66
c File: j12058_8.smnaiveor1.wcnf
c timeout
c final solution cost: 174
c CPU time: 77.182310
s UNKNOWN

c File: j12058_8.smor1.wcnf
c timeout
c CPU time: 62.031191
s UNKNOWN


rcpsp/heur_output_or_constraints/Log=1/heurj120.txt
encoding rcpsp/j120.sm/j12058_9.sm nv: 6677930 nc: 13547481 enctime: 129.06
encoding rcpsp/j120.sm/j12058_9.sm nv: 1375754 nc: 2787369 enctime: 18.43
c File: j12058_9.smnaiveor1.wcnf
c timeout
c final solution cost: 136
c CPU time: 76.709591
s UNKNOWN

c File: j12058_9.smor1.wcnf
c timeout
c CPU time: 62.014252
s UNKNOWN


rcpsp/heur_output_or_constraints/Log=1/heurj120.txt
encoding rcpsp/j120.sm/j1205_8.sm nv: 1011172 nc: 2247953 enctime: 38.45
encoding rcpsp/j120.sm/j1205_8.sm nv: 90960 nc: 198114 enctime: 1.98
c File: j1205_8.smnaiveor1.wcnf
c timeout
c final solution cost: 54
c CPU time: 67.169027
s UNKNOWN

c File: j1205_8.smor1.wcnf
c timeout
c final solution cost: 53
c CPU time: 60.173608
s UNKNOWN


rcpsp/heur_output_or_constraints/Log=1/heurj120.txt
encoding rcpsp/j120.sm/j12059_10.sm nv: 5526962 nc: 11197545 enctime: 105.45
encoding rcpsp/j120.sm/j12059_10.sm nv: 1266978 nc: 2563897 enctime: 16.79
c File: j12059_10.smnaiveor1.wcnf
c timeout
c final solution cost: 141
c CPU time: 73.922746
s UNKNOWN

c File: j12059_10.smor1.wcnf
c timeout
c CPU time: 61.883757
s UNKNOWN


rcpsp/heur_output_or_constraints/Log=1/heurj120.txt
encoding rcpsp/j120.sm/j12059_1.sm nv: 9186912 nc: 18541761 enctime: 165.79
encoding rcpsp/j120.sm/j12059_1.sm nv: 1421784 nc: 2865529 enctime: 19.94
c File: j12059_1.smnaiveor1.wcnf
c timeout
c final solution cost: 503
c CPU time: 80.800034
s UNKNOWN

c File: j12059_1.smor1.wcnf
c timeout
c CPU time: 61.969516
s UNKNOWN


rcpsp/heur_output_or_constraints/Log=1/heurj120.txt
encoding rcpsp/j120.sm/j12059_2.sm nv: 8010728 nc: 16168981 enctime: 144.86
encoding rcpsp/j120.sm/j12059_2.sm nv: 1381160 nc: 2784181 enctime: 18.80
c File: j12059_2.smnaiveor1.wcnf
c timeout
c final solution cost: 220
c CPU time: 77.720273
s UNKNOWN

c File: j12059_2.smor1.wcnf
c timeout
c CPU time: 61.921833
s UNKNOWN


rcpsp/heur_output_or_constraints/Log=1/heurj120.txt
encoding rcpsp/j120.sm/j12059_3.sm nv: 8069206 nc: 16270543 enctime: 157.18
encoding rcpsp/j120.sm/j12059_3.sm nv: 1310273 nc: 2638578 enctime: 19.53
c File: j12059_3.smnaiveor1.wcnf
c timeout
c final solution cost: 105
c CPU time: 81.828746
s UNKNOWN

c File: j12059_3.smor1.wcnf
c timeout
c CPU time: 62.366641
s UNKNOWN


rcpsp/heur_output_or_constraints/Log=1/heurj120.txt
encoding rcpsp/j120.sm/j12059_4.sm nv: 6889008 nc: 13907315 enctime: 153.84
encoding rcpsp/j120.sm/j12059_4.sm nv: 1250480 nc: 2521139 enctime: 24.73
c File: j12059_4.smnaiveor1.wcnf
c timeout
c final solution cost: 396
c CPU time: 77.353581
s UNKNOWN

c File: j12059_4.smor1.wcnf
c timeout
c CPU time: 62.165643
s UNKNOWN


rcpsp/heur_output_or_constraints/Log=1/heurj120.txt
encoding rcpsp/j120.sm/j12059_5.sm nv: 8335230 nc: 16829625 enctime: 191.25
encoding rcpsp/j120.sm/j12059_5.sm nv: 1338225 nc: 2698365 enctime: 23.54
c File: j12059_5.smnaiveor1.wcnf
c timeout
c final solution cost: 223
c CPU time: 80.788252
s UNKNOWN

c File: j12059_5.smor1.wcnf
c timeout
c CPU time: 62.024238
s UNKNOWN


rcpsp/heur_output_or_constraints/Log=1/heurj120.txt
encoding rcpsp/j120.sm/j12059_6.sm nv: 8401932 nc: 17009506 enctime: 194.56
encoding rcpsp/j120.sm/j12059_6.sm nv: 1442756 nc: 2916658 enctime: 21.45
c File: j12059_6.smnaiveor1.wcnf
c timeout
c final solution cost: 239
c CPU time: 83.795651
s UNKNOWN

c File: j12059_6.smor1.wcnf
c timeout
c CPU time: 62.247560
s UNKNOWN


rcpsp/heur_output_or_constraints/Log=1/heurj120.txt
encoding rcpsp/j120.sm/j12059_7.sm nv: 7304904 nc: 14777919 enctime: 167.72
encoding rcpsp/j120.sm/j12059_7.sm nv: 1330214 nc: 2687559 enctime: 27.51
c File: j12059_7.smnaiveor1.wcnf
c timeout
c final solution cost: 182
c CPU time: 79.683909
s UNKNOWN

c File: j12059_7.smor1.wcnf
c timeout
c CPU time: 62.145070
s UNKNOWN


rcpsp/heur_output_or_constraints/Log=1/heurj120.txt
encoding rcpsp/j120.sm/j12059_8.sm nv: 8168840 nc: 16528787 enctime: 184.40
encoding rcpsp/j120.sm/j12059_8.sm nv: 1297404 nc: 2621179 enctime: 21.25
c File: j12059_8.smnaiveor1.wcnf
c timeout
c final solution cost: 498
c CPU time: 81.829565
s UNKNOWN

c File: j12059_8.smor1.wcnf
c timeout
c CPU time: 61.887644
s UNKNOWN


rcpsp/heur_output_or_constraints/Log=1/heurj120.txt
encoding rcpsp/j120.sm/j12059_9.sm nv: 6807520 nc: 13769769 enctime: 158.44
encoding rcpsp/j120.sm/j12059_9.sm nv: 1257440 nc: 2540073 enctime: 20.13
c File: j12059_9.smnaiveor1.wcnf
c timeout
c final solution cost: 212
c CPU time: 77.474112
s UNKNOWN

c File: j12059_9.smor1.wcnf
c timeout
c CPU time: 62.402569
s UNKNOWN


rcpsp/heur_output_or_constraints/Log=1/heurj120.txt
encoding rcpsp/j120.sm/j1205_9.sm nv: 1003904 nc: 2256015 enctime: 46.97
encoding rcpsp/j120.sm/j1205_9.sm nv: 132480 nc: 293535 enctime: 1.66
c File: j1205_9.smnaiveor1.wcnf
c timeout
c final solution cost: 80
c CPU time: 68.313648
s UNKNOWN

c File: j1205_9.smor1.wcnf
c timeout
c final solution cost: 80
c CPU time: 60.387203
s UNKNOWN


rcpsp/heur_output_or_constraints/Log=1/heurj120.txt
encoding rcpsp/j120.sm/j12060_10.sm nv: 9027135 nc: 18138358 enctime: 181.58
encoding rcpsp/j120.sm/j12060_10.sm nv: 1280773 nc: 2570334 enctime: 20.06
c File: j12060_10.smnaiveor1.wcnf
c timeout
c final solution cost: 562
c CPU time: 82.078613
s UNKNOWN

c File: j12060_10.smor1.wcnf
c timeout
c CPU time: 61.983788
s UNKNOWN


rcpsp/heur_output_or_constraints/Log=1/heurj120.txt
encoding rcpsp/j120.sm/j12060_1.sm nv: 9954882 nc: 20057717 enctime: 217.21
encoding rcpsp/j120.sm/j12060_1.sm nv: 1406997 nc: 2830867 enctime: 19.39
c File: j12060_1.smnaiveor1.wcnf
c timeout
c final solution cost: 102
c CPU time: 82.786451
s UNKNOWN

c File: j12060_1.smor1.wcnf
c timeout
c CPU time: 61.985154
s UNKNOWN


rcpsp/heur_output_or_constraints/Log=1/heurj120.txt
encoding rcpsp/j120.sm/j12060_2.sm nv: 9997064 nc: 20098563 enctime: 218.02
encoding rcpsp/j120.sm/j12060_2.sm nv: 1282091 nc: 2574105 enctime: 19.41
c File: j12060_2.smnaiveor1.wcnf
c timeout
c final solution cost: 216
c CPU time: 81.960641
s UNKNOWN

c File: j12060_2.smor1.wcnf
c timeout
c CPU time: 61.708537
s UNKNOWN


rcpsp/heur_output_or_constraints/Log=1/heurj120.txt
encoding rcpsp/j120.sm/j12060_3.sm nv: 8156610 nc: 16422942 enctime: 180.37
encoding rcpsp/j120.sm/j12060_3.sm nv: 1226862 nc: 2466814 enctime: 13.42
c File: j12060_3.smnaiveor1.wcnf
c timeout
c final solution cost: 99
c CPU time: 78.910606
s UNKNOWN

c File: j12060_3.smor1.wcnf
c timeout
c CPU time: 61.560297
s UNKNOWN


rcpsp/heur_output_or_constraints/Log=1/heurj120.txt
encoding rcpsp/j120.sm/j12060_4.sm nv: 8117291 nc: 16378076 enctime: 165.47
encoding rcpsp/j120.sm/j12060_4.sm nv: 1325272 nc: 2670382 enctime: 20.23
c File: j12060_4.smnaiveor1.wcnf
c timeout
c final solution cost: 108
c CPU time: 78.944590
s UNKNOWN

c File: j12060_4.smor1.wcnf
c timeout
c CPU time: 62.222379
s UNKNOWN


rcpsp/heur_output_or_constraints/Log=1/heurj120.txt
encoding rcpsp/j120.sm/j12060_5.sm nv: 8378664 nc: 16900457 enctime: 168.25
encoding rcpsp/j120.sm/j12060_5.sm nv: 1383270 nc: 2786477 enctime: 23.55
c File: j12060_5.smnaiveor1.wcnf
c timeout
c final solution cost: 161
c CPU time: 78.559798
s UNKNOWN

c File: j12060_5.smor1.wcnf
c timeout
c CPU time: 62.177856
s UNKNOWN


rcpsp/heur_output_or_constraints/Log=1/heurj120.txt
encoding rcpsp/j120.sm/j12060_6.sm nv: 9750855 nc: 19703353 enctime: 201.24
encoding rcpsp/j120.sm/j12060_6.sm nv: 1535241 nc: 3098083 enctime: 23.03
c File: j12060_6.smnaiveor1.wcnf
c timeout
c final solution cost: 190
c CPU time: 83.512537
s UNKNOWN

c File: j12060_6.smor1.wcnf
c timeout
c CPU time: 62.232290
s UNKNOWN


rcpsp/heur_output_or_constraints/Log=1/heurj120.txt
encoding rcpsp/j120.sm/j12060_7.sm nv: 8520096 nc: 17162041 enctime: 176.94
encoding rcpsp/j120.sm/j12060_7.sm nv: 1269822 nc: 2554231 enctime: 19.84
c File: j12060_7.smnaiveor1.wcnf
c timeout
c final solution cost: 93
c CPU time: 80.822086
s UNKNOWN

c File: j12060_7.smor1.wcnf
c timeout
c CPU time: 61.815752
s UNKNOWN


rcpsp/heur_output_or_constraints/Log=1/heurj120.txt
encoding rcpsp/j120.sm/j12060_8.sm nv: 11050350 nc: 22264973 enctime: 211.25
encoding rcpsp/j120.sm/j12060_8.sm nv: 1505410 nc: 3029073 enctime: 19.99
c File: j12060_8.smnaiveor1.wcnf
c timeout
c final solution cost: 242
c CPU time: 86.053182
s UNKNOWN

c File: j12060_8.smor1.wcnf
c timeout
c CPU time: 62.504242
s UNKNOWN


rcpsp/heur_output_or_constraints/Log=1/heurj120.txt
encoding rcpsp/j120.sm/j12060_9.sm nv: 11621928 nc: 23391960 enctime: 229.31
encoding rcpsp/j120.sm/j12060_9.sm nv: 1429344 nc: 2872616 enctime: 17.00
c File: j12060_9.smnaiveor1.wcnf
c timeout
c final solution cost: 94
c CPU time: 87.250762
s UNKNOWN

c File: j12060_9.smor1.wcnf
c timeout
c CPU time: 61.924161
s UNKNOWN


